%chk=H2+.chk
%mem=60MW
%nproc=1
# hf/sto-3g pop=full geom=connectivity

H2 molecular cation

1 2
 H
 H                  1              B1

   B1             1.06052000

 1
 2

